50, 11774
606, 260
396, 686
131, 685
491, 850
236, 186
236, 231
195, 148
367, 226
74, 735
652, 131
954, 532
390, 214
719, 295
933, 432
44, 838
142, 609
807, 15
839, 276
640, 147
160, 872
414, 810
869, 807
887, 827
804, 745
204, 950
854, 794
375, 257
717, 850
138, 487
972, 756
604, 565
723, 430
212, 365
618, 430
581, 314
592, 118
360, 820
728, 799
342, 986
296, 691
165, 555
685, 749
113, 135
226, 677
70, 444
644, 177
557, 203
544, 523
39, 254
440, 460
